%%%mzn-stat: initTime=0.038046766
%%%mzn-stat: objective=185
%%%mzn-stat: nodes=1935
%%%mzn-stat: restarts=0
%%%mzn-stat: peakDepth=1289
%%%mzn-stat: solveTime=0.503467516
%%%mzn-stat: variables=3406
%%%mzn-stat: propagators=2957
%%%mzn-stat: failures=327
%%%mzn-stat: propagations=264132
%%%mzn-stat: nogoods=327
%%%mzn-stat: AverageConflictSize=8.813455657492355
%%%mzn-stat: NumUnitNogoodsLearned=184
%%%mzn-stat: AverageLearnedNogoodLength=36.522935779816514
%%%mzn-stat: AverageBacktrackAmount=0
%%%mzn-stat: AverageLbd=10.944954128440367
%%%mzn-stat-end
maxleg = 185;
succ = array1d(1..150,[132, 115, 90, 2, 125, 138, 35, 21, 81, 121, 73, 39, 48, 65, 61, 41, 139, 89, 30, 96, 17, 45, 93, 99, 69, 74, 42, 146, 49, 33, 75, 85, 92, 133, 94, 82, 141, 7, 32, 20, 100, 134, 143, 22, 38, 29, 51, 54, 3, 150, 58, 57, 129, 12, 68, 120, 80, 102, 118, 140, 83, 119, 1, 88, 136, 8, 46, 60, 43, 47, 18, 105, 122, 31, 11, 5, 36, 4, 111, 44, 91, 104, 142, 97, 70, 113, 84, 37, 145, 71, 24, 127, 128, 149, 78, 59, 16, 148, 86, 124, 106, 110, 79, 66, 19, 107, 34, 25, 108, 131, 112, 26, 117, 72, 76, 6, 55, 14, 101, 63, 135, 10, 114, 9, 64, 116, 56, 40, 126, 87, 15, 137, 13, 23, 53, 147, 130, 28, 103, 67, 123, 109, 95, 50, 144, 27, 98, 52, 62, 77]);
% time elapsed: 2.57 s
----------
==========
% time elapsed: 2.57 s
%%%mzn-stat: initTime=0.038046766
%%%mzn-stat: objective=185
%%%mzn-stat: nodes=1935
%%%mzn-stat: restarts=0
%%%mzn-stat: peakDepth=1289
%%%mzn-stat: solveTime=0.503473076
%%%mzn-stat: variables=3406
%%%mzn-stat: propagators=2957
%%%mzn-stat: failures=327
%%%mzn-stat: propagations=264132
%%%mzn-stat: nogoods=327
%%%mzn-stat: AverageConflictSize=8.813455657492355
%%%mzn-stat: NumUnitNogoodsLearned=184
%%%mzn-stat: AverageLearnedNogoodLength=36.522935779816514
%%%mzn-stat: AverageBacktrackAmount=0
%%%mzn-stat: AverageLbd=10.944954128440367
%%%mzn-stat-end
